34 12
6 539
6 463
9 922
4 67
6 688
9 152
4 89
11 79
2 706
8 32
11 257
11 932
6 31
11 441
3 518
8 528
8 953
2 906
4 262
5 434
6 542
4 159
11 879
5 354
9 779
8 233
9 401
4 209
9 965
10 568
2 889
5 675
11 166
3 73
